(set-logic QF_S)
(declare-fun A () String)
(assert (= (str.++  A A "aaaaa")  (str.++  A "aaaaaaaaaaaaaaaaaaaaaaaaaaaaaaaaaaaaaaa" "") ))
(assert (= (str.++  "aaaaaaaaaaaaaaaaaaaaaaaaaaaaaaaaaaaaaaaaaaaaaaaaaaaaaaaaaaaaaaaaaaaaaaaaa" "")  (str.++  A A "aaaaa") ))
(assert (= (str.++  A "aaaaaaaaaaaaaaaaaaaaaaaaaaaaaaaaaaaaaaa" "")  (str.++  A "aaaaaaaaaaaaaaaaaaaaaaaaaaaaaaaaaaaaaaa" "") ))
(assert (= (str.++  A "aaaaaaaaaaaaaaaaaaaaaaaaaaaaaaaaaaaaaaa" "")  (str.++  A "aaaaaaaaaaaaaaaaaaaaaaaaaaaaaaaaaaaaaaa" "") ))
(assert (= (str.++  A A "aaaaa")  (str.++  A "aaaaaaaaaaaaaaaaaaaaaaaaaaaaaaaaaaaaaaa" "") ))
(assert (= (str.++  "aaaaaaaaaaaaaaaaaaaaaaaaaaaaaaaaaaaaaaaaaaaaaaaaaaaaaaaaaaaaaaaaaaaaaaaaa" "")  (str.++  "aaaaaaaaaaaaaaaaaaaaaaaaaaaaaaaaaa" A "aaaaa") ))
(assert (= (str.++  A "aaaaaaaaaaaaaaaaaaaaaaaaaaaaaaaaaaaaaaa" "")  (str.++  "aaaaaaaaaaaaaaaaaaaaaaaaaaaaaaaaaaaaaaaaaaaaaaaaaaaaaaaaaaaaaaaaaaaaaaaaa" "") ))
(assert (= (str.++  A "aaaaaaaaaaaaaaaaaaaaaaaaaaaaaaaaaaaaaaa" "")  (str.++  "aaaaaaaaaaaaaaaaaaaaaaaaaaaaaaaaaa" A "aaaaa") ))
(assert (= (str.++  "aaaaaaaaaaaaaaaaaaaaaaaaaaaaaaaaaa" A "aaaaa")  (str.++  "aaaaaaaaaaaaaaaaaaaaaaaaaaaaaaaaaa" A "aaaaa") ))
(assert (= (str.++  "aaaaaaaaaaaaaaaaaaaaaaaaaaaaaaaaaaaaaaaaaaaaaaaaaaaaaaaaaaaaaaaaaaaaaaaaa" "")  (str.++  A "aaaaaaaaaaaaaaaaaaaaaaaaaaaaaaaaaaaaaaa" "") ))
(assert (= (str.++  "aaaaaaaaaaaaaaaaaaaaaaaaaaaaaaaaaaaaaaaaaaaaaaaaaaaaaaaaaaaaaaaaaaaaaaaaa" "")  (str.++  "aaaaaaaaaaaaaaaaaaaaaaaaaaaaaaaaaa" A "aaaaa") ))
(assert (= (str.++  "aaaaaaaaaaaaaaaaaaaaaaaaaaaaaaaaaa" A "aaaaa")  (str.++  A A "aaaaa") ))
(assert (= (str.++  "aaaaaaaaaaaaaaaaaaaaaaaaaaaaaaaaaa" A "aaaaa")  (str.++  A "aaaaaaaaaaaaaaaaaaaaaaaaaaaaaaaaaaaaaaa" "") ))
(assert (= (str.++  A A "aaaaa")  (str.++  A "aaaaaaaaaaaaaaaaaaaaaaaaaaaaaaaaaaaaaaa" "") ))
(assert (= (str.++  A A "aaaaa")  (str.++  A A "aaaaa") ))
(assert (= (str.++  A "aaaaaaaaaaaaaaaaaaaaaaaaaaaaaaaaaaaaaaa" "")  (str.++  A "aaaaaaaaaaaaaaaaaaaaaaaaaaaaaaaaaaaaaaa" "") ))
(assert (= (str.++  A "aaaaaaaaaaaaaaaaaaaaaaaaaaaaaaaaaaaaaaa" "")  (str.++  "aaaaaaaaaaaaaaaaaaaaaaaaaaaaaaaaaa" A "aaaaa") ))
(assert (= (str.++  A "aaaaaaaaaaaaaaaaaaaaaaaaaaaaaaaaaaaaaaa" "")  (str.++  "aaaaaaaaaaaaaaaaaaaaaaaaaaaaaaaaaa" A "aaaaa") ))
(assert (= (str.++  A "aaaaaaaaaaaaaaaaaaaaaaaaaaaaaaaaaaaaaaa" "")  (str.++  "aaaaaaaaaaaaaaaaaaaaaaaaaaaaaaaaaaaaaaaaaaaaaaaaaaaaaaaaaaaaaaaaaaaaaaaaa" "") ))
(assert (= (str.++  "aaaaaaaaaaaaaaaaaaaaaaaaaaaaaaaaaa" A "aaaaa")  (str.++  A "aaaaaaaaaaaaaaaaaaaaaaaaaaaaaaaaaaaaaaa" "") ))
(assert (= (str.++  A A "aaaaa")  (str.++  "aaaaaaaaaaaaaaaaaaaaaaaaaaaaaaaaaa" A "aaaaa") ))
(assert (= (str.++  "aaaaaaaaaaaaaaaaaaaaaaaaaaaaaaaaaaaaaaaaaaaaaaaaaaaaaaaaaaaaaaaaaaaaaaaaa" "")  (str.++  A "aaaaaaaaaaaaaaaaaaaaaaaaaaaaaaaaaaaaaaa" "") ))
(assert (= (str.++  A "aaaaaaaaaaaaaaaaaaaaaaaaaaaaaaaaaaaaaaa" "")  (str.++  A "aaaaaaaaaaaaaaaaaaaaaaaaaaaaaaaaaaaaaaa" "") ))
(assert (= (str.++  "aaaaaaaaaaaaaaaaaaaaaaaaaaaaaaaaaa" A "aaaaa")  (str.++  A "aaaaaaaaaaaaaaaaaaaaaaaaaaaaaaaaaaaaaaa" "") ))
(assert (= (str.++  A "aaaaaaaaaaaaaaaaaaaaaaaaaaaaaaaaaaaaaaa" "")  (str.++  "aaaaaaaaaaaaaaaaaaaaaaaaaaaaaaaaaaaaaaaaaaaaaaaaaaaaaaaaaaaaaaaaaaaaaaaaa" "") ))
(assert (= (str.++  "aaaaaaaaaaaaaaaaaaaaaaaaaaaaaaaaaaaaaaaaaaaaaaaaaaaaaaaaaaaaaaaaaaaaaaaaa" "")  (str.++  A A "aaaaa") ))
(assert (= (str.++  "aaaaaaaaaaaaaaaaaaaaaaaaaaaaaaaaaaaaaaaaaaaaaaaaaaaaaaaaaaaaaaaaaaaaaaaaa" "")  (str.++  A "aaaaaaaaaaaaaaaaaaaaaaaaaaaaaaaaaaaaaaa" "") ))
(assert (= (str.++  "aaaaaaaaaaaaaaaaaaaaaaaaaaaaaaaaaaaaaaaaaaaaaaaaaaaaaaaaaaaaaaaaaaaaaaaaa" "")  (str.++  A A "aaaaa") ))
(assert (= (str.++  "aaaaaaaaaaaaaaaaaaaaaaaaaaaaaaaaaaaaaaaaaaaaaaaaaaaaaaaaaaaaaaaaaaaaaaaaa" "")  (str.++  "aaaaaaaaaaaaaaaaaaaaaaaaaaaaaaaaaa" A "aaaaa") ))
(assert (= (str.++  A A "aaaaa")  (str.++  "aaaaaaaaaaaaaaaaaaaaaaaaaaaaaaaaaaaaaaaaaaaaaaaaaaaaaaaaaaaaaaaaaaaaaaaaa" "") ))
(assert (= (str.++  A A "aaaaa")  (str.++  A A "aaaaa") ))
(assert (= (str.++  A "aaaaaaaaaaaaaaaaaaaaaaaaaaaaaaaaaaaaaaa" "")  (str.++  "aaaaaaaaaaaaaaaaaaaaaaaaaaaaaaaaaaaaaaaaaaaaaaaaaaaaaaaaaaaaaaaaaaaaaaaaa" "") ))
(assert (= (str.++  "aaaaaaaaaaaaaaaaaaaaaaaaaaaaaaaaaaaaaaaaaaaaaaaaaaaaaaaaaaaaaaaaaaaaaaaaa" "")  (str.++  A "aaaaaaaaaaaaaaaaaaaaaaaaaaaaaaaaaaaaaaa" "") ))
(assert (= (str.++  "aaaaaaaaaaaaaaaaaaaaaaaaaaaaaaaaaa" A "aaaaa")  (str.++  "aaaaaaaaaaaaaaaaaaaaaaaaaaaaaaaaaaaaaaaaaaaaaaaaaaaaaaaaaaaaaaaaaaaaaaaaa" "") ))
(assert (= (str.++  "aaaaaaaaaaaaaaaaaaaaaaaaaaaaaaaaaa" A "aaaaa")  (str.++  "aaaaaaaaaaaaaaaaaaaaaaaaaaaaaaaaaa" A "aaaaa") ))
(assert (= (str.++  "aaaaaaaaaaaaaaaaaaaaaaaaaaaaaaaaaaaaaaaaaaaaaaaaaaaaaaaaaaaaaaaaaaaaaaaaa" "")  (str.++  A A "aaaaa") ))
(assert (= (str.++  A A "aaaaa")  (str.++  A "aaaaaaaaaaaaaaaaaaaaaaaaaaaaaaaaaaaaaaa" "") ))
(assert (= (str.++  "aaaaaaaaaaaaaaaaaaaaaaaaaaaaaaaaaa" A "aaaaa")  (str.++  A A "aaaaa") ))
(assert (= (str.++  "aaaaaaaaaaaaaaaaaaaaaaaaaaaaaaaaaa" A "aaaaa")  (str.++  A A "aaaaa") ))
(assert (= (str.++  A A "aaaaa")  (str.++  "aaaaaaaaaaaaaaaaaaaaaaaaaaaaaaaaaa" A "aaaaa") ))
(assert (= (str.++  A A "aaaaa")  (str.++  A A "aaaaa") ))
(assert (= (str.++  A "aaaaaaaaaaaaaaaaaaaaaaaaaaaaaaaaaaaaaaa" "")  (str.++  A A "aaaaa") ))
(assert (= (str.++  A A "aaaaa")  (str.++  A A "aaaaa") ))
(assert (= (str.++  "aaaaaaaaaaaaaaaaaaaaaaaaaaaaaaaaaaaaaaaaaaaaaaaaaaaaaaaaaaaaaaaaaaaaaaaaa" "")  (str.++  A A "aaaaa") ))
(assert (= (str.++  A "aaaaaaaaaaaaaaaaaaaaaaaaaaaaaaaaaaaaaaa" "")  (str.++  "aaaaaaaaaaaaaaaaaaaaaaaaaaaaaaaaaaaaaaaaaaaaaaaaaaaaaaaaaaaaaaaaaaaaaaaaa" "") ))
(assert (= (str.++  "aaaaaaaaaaaaaaaaaaaaaaaaaaaaaaaaaa" A "aaaaa")  (str.++  A A "aaaaa") ))
(assert (= (str.++  A "aaaaaaaaaaaaaaaaaaaaaaaaaaaaaaaaaaaaaaa" "")  (str.++  A "aaaaaaaaaaaaaaaaaaaaaaaaaaaaaaaaaaaaaaa" "") ))
(assert (= (str.++  "aaaaaaaaaaaaaaaaaaaaaaaaaaaaaaaaaa" A "aaaaa")  (str.++  A A "aaaaa") ))
(assert (= (str.++  A "aaaaaaaaaaaaaaaaaaaaaaaaaaaaaaaaaaaaaaa" "")  (str.++  "aaaaaaaaaaaaaaaaaaaaaaaaaaaaaaaaaaaaaaaaaaaaaaaaaaaaaaaaaaaaaaaaaaaaaaaaa" "") ))
(assert (= (str.++  "aaaaaaaaaaaaaaaaaaaaaaaaaaaaaaaaaa" A "aaaaa")  (str.++  "aaaaaaaaaaaaaaaaaaaaaaaaaaaaaaaaaaaaaaaaaaaaaaaaaaaaaaaaaaaaaaaaaaaaaaaaa" "") ))
(assert (= (str.++  "aaaaaaaaaaaaaaaaaaaaaaaaaaaaaaaaaa" A "aaaaa")  (str.++  A A "aaaaa") ))
(assert (= (str.++  "aaaaaaaaaaaaaaaaaaaaaaaaaaaaaaaaaa" A "aaaaa")  (str.++  "aaaaaaaaaaaaaaaaaaaaaaaaaaaaaaaaaaaaaaaaaaaaaaaaaaaaaaaaaaaaaaaaaaaaaaaaa" "") ))
(assert (= (str.++  "aaaaaaaaaaaaaaaaaaaaaaaaaaaaaaaaaaaaaaaaaaaaaaaaaaaaaaaaaaaaaaaaaaaaaaaaa" "")  (str.++  A "aaaaaaaaaaaaaaaaaaaaaaaaaaaaaaaaaaaaaaa" "") ))
(assert (= (str.++  "aaaaaaaaaaaaaaaaaaaaaaaaaaaaaaaaaa" A "aaaaa")  (str.++  A "aaaaaaaaaaaaaaaaaaaaaaaaaaaaaaaaaaaaaaa" "") ))
(assert (= (str.++  "aaaaaaaaaaaaaaaaaaaaaaaaaaaaaaaaaaaaaaaaaaaaaaaaaaaaaaaaaaaaaaaaaaaaaaaaa" "")  (str.++  A A "aaaaa") ))
(assert (= (str.++  A "aaaaaaaaaaaaaaaaaaaaaaaaaaaaaaaaaaaaaaa" "")  (str.++  A "aaaaaaaaaaaaaaaaaaaaaaaaaaaaaaaaaaaaaaa" "") ))
(assert (= (str.++  "aaaaaaaaaaaaaaaaaaaaaaaaaaaaaaaaaaaaaaaaaaaaaaaaaaaaaaaaaaaaaaaaaaaaaaaaa" "")  (str.++  A "aaaaaaaaaaaaaaaaaaaaaaaaaaaaaaaaaaaaaaa" "") ))
(assert (= (str.++  A "aaaaaaaaaaaaaaaaaaaaaaaaaaaaaaaaaaaaaaa" "")  (str.++  "aaaaaaaaaaaaaaaaaaaaaaaaaaaaaaaaaa" A "aaaaa") ))
(assert (= (str.++  A "aaaaaaaaaaaaaaaaaaaaaaaaaaaaaaaaaaaaaaa" "")  (str.++  A A "aaaaa") ))
(assert (= (str.++  A A "aaaaa")  (str.++  "aaaaaaaaaaaaaaaaaaaaaaaaaaaaaaaaaa" A "aaaaa") ))
(assert (= (str.++  "aaaaaaaaaaaaaaaaaaaaaaaaaaaaaaaaaaaaaaaaaaaaaaaaaaaaaaaaaaaaaaaaaaaaaaaaa" "")  (str.++  A A "aaaaa") ))
(assert (= (str.++  "aaaaaaaaaaaaaaaaaaaaaaaaaaaaaaaaaa" A "aaaaa")  (str.++  A "aaaaaaaaaaaaaaaaaaaaaaaaaaaaaaaaaaaaaaa" "") ))
(assert (= (str.++  "aaaaaaaaaaaaaaaaaaaaaaaaaaaaaaaaaaaaaaaaaaaaaaaaaaaaaaaaaaaaaaaaaaaaaaaaa" "")  (str.++  A "aaaaaaaaaaaaaaaaaaaaaaaaaaaaaaaaaaaaaaa" "") ))
(assert (= (str.++  A "aaaaaaaaaaaaaaaaaaaaaaaaaaaaaaaaaaaaaaa" "")  (str.++  A A "aaaaa") ))
(assert (= (str.++  "aaaaaaaaaaaaaaaaaaaaaaaaaaaaaaaaaaaaaaaaaaaaaaaaaaaaaaaaaaaaaaaaaaaaaaaaa" "")  (str.++  "aaaaaaaaaaaaaaaaaaaaaaaaaaaaaaaaaa" A "aaaaa") ))
(assert (= (str.++  A "aaaaaaaaaaaaaaaaaaaaaaaaaaaaaaaaaaaaaaa" "")  (str.++  "aaaaaaaaaaaaaaaaaaaaaaaaaaaaaaaaaaaaaaaaaaaaaaaaaaaaaaaaaaaaaaaaaaaaaaaaa" "") ))
(assert (= (str.++  A "aaaaaaaaaaaaaaaaaaaaaaaaaaaaaaaaaaaaaaa" "")  (str.++  A A "aaaaa") ))
(assert (= (str.++  "aaaaaaaaaaaaaaaaaaaaaaaaaaaaaaaaaa" A "aaaaa")  (str.++  "aaaaaaaaaaaaaaaaaaaaaaaaaaaaaaaaaaaaaaaaaaaaaaaaaaaaaaaaaaaaaaaaaaaaaaaaa" "") ))
(assert (= (str.++  A A "aaaaa")  (str.++  "aaaaaaaaaaaaaaaaaaaaaaaaaaaaaaaaaaaaaaaaaaaaaaaaaaaaaaaaaaaaaaaaaaaaaaaaa" "") ))
(assert (= (str.++  "aaaaaaaaaaaaaaaaaaaaaaaaaaaaaaaaaaaaaaaaaaaaaaaaaaaaaaaaaaaaaaaaaaaaaaaaa" "")  (str.++  A A "aaaaa") ))
(assert (= (str.++  "aaaaaaaaaaaaaaaaaaaaaaaaaaaaaaaaaaaaaaaaaaaaaaaaaaaaaaaaaaaaaaaaaaaaaaaaa" "")  (str.++  A "aaaaaaaaaaaaaaaaaaaaaaaaaaaaaaaaaaaaaaa" "") ))
(assert (= (str.++  "aaaaaaaaaaaaaaaaaaaaaaaaaaaaaaaaaa" A "aaaaa")  (str.++  A A "aaaaa") ))
(assert (= (str.++  "aaaaaaaaaaaaaaaaaaaaaaaaaaaaaaaaaaaaaaaaaaaaaaaaaaaaaaaaaaaaaaaaaaaaaaaaa" "")  (str.++  A A "aaaaa") ))
(assert (= (str.++  "aaaaaaaaaaaaaaaaaaaaaaaaaaaaaaaaaa" A "aaaaa")  (str.++  "aaaaaaaaaaaaaaaaaaaaaaaaaaaaaaaaaaaaaaaaaaaaaaaaaaaaaaaaaaaaaaaaaaaaaaaaa" "") ))
(assert (= (str.++  A "aaaaaaaaaaaaaaaaaaaaaaaaaaaaaaaaaaaaaaa" "")  (str.++  "aaaaaaaaaaaaaaaaaaaaaaaaaaaaaaaaaa" A "aaaaa") ))
(assert (= (str.++  A "aaaaaaaaaaaaaaaaaaaaaaaaaaaaaaaaaaaaaaa" "")  (str.++  "aaaaaaaaaaaaaaaaaaaaaaaaaaaaaaaaaa" A "aaaaa") ))
(assert (= (str.++  A A "aaaaa")  (str.++  "aaaaaaaaaaaaaaaaaaaaaaaaaaaaaaaaaaaaaaaaaaaaaaaaaaaaaaaaaaaaaaaaaaaaaaaaa" "") ))
(check-sat)
(get-model)
